(declare-fun F__0 ((_ BitVec 16) (_ BitVec 32)) Bool)
(declare-fun F__1 ((_ BitVec 16) (_ BitVec 32)) Bool)
(declare-fun F__2 ((_ BitVec 16) (_ BitVec 32)) Bool)
(declare-fun F__3 ((_ BitVec 16) (_ BitVec 32)) Bool)
(declare-fun F__4 ((_ BitVec 16) (_ BitVec 32)) Bool)
(declare-fun F__5 ((_ BitVec 16) (_ BitVec 32)) Bool)
(declare-fun F__6 ((_ BitVec 16) (_ BitVec 32)) Bool)
(declare-fun F__7 ((_ BitVec 16) (_ BitVec 32)) Bool)
(declare-fun F__8 ((_ BitVec 16) (_ BitVec 32)) Bool)
(declare-fun F__9 ((_ BitVec 16) (_ BitVec 32)) Bool)
(declare-fun F__10 ((_ BitVec 16) (_ BitVec 32)) Bool)
(declare-fun F_ERR ((_ BitVec 16) (_ BitVec 32)) Bool)
(declare-fun In_0 ((_ BitVec 32)) (_ BitVec 1))
(assert (forall ((tmp (_ BitVec 16)) (tmp_0 (_ BitVec 32)))
        (=> (= tmp_0 #x00000000) (F__0 #x0000 tmp_0))))
(assert (forall ((tmp_1 (_ BitVec 16)) (tmp_2 (_ BitVec 32)))
        (=> (and (F__0 tmp_1 tmp_2) (distinct (In_0 tmp_2) #b1)) (F__1 (bvadd tmp_1 #x0001) (bvadd tmp_2 #x00000001)))))
(assert (forall ((tmp_3 (_ BitVec 16)) (tmp_4 (_ BitVec 32)))
        (=> (and (F__0 tmp_3 tmp_4) (= (In_0 tmp_4) #b1)) (F_ERR tmp_3 (bvadd tmp_4 #x00000001)))))
(assert (forall ((tmp_5 (_ BitVec 16)) (tmp_6 (_ BitVec 32)))
        (=> (and (F__1 tmp_5 tmp_6) (distinct (In_0 tmp_6) #b1)) (F__2 (bvadd tmp_5 #x0001) (bvadd tmp_6 #x00000001)))))
(assert (forall ((tmp_7 (_ BitVec 16)) (tmp_8 (_ BitVec 32)))
        (=> (and (F__1 tmp_7 tmp_8) (= (In_0 tmp_8) #b1)) (F_ERR tmp_7 (bvadd tmp_8 #x00000001)))))
(assert (forall ((tmp_9 (_ BitVec 16)) (tmp_10 (_ BitVec 32)))
        (=> (and (F__2 tmp_9 tmp_10) (distinct (In_0 tmp_10) #b1)) (F__3 (bvadd tmp_9 #x0001) (bvadd tmp_10 #x00000001)))))
(assert (forall ((tmp_11 (_ BitVec 16)) (tmp_12 (_ BitVec 32)))
        (=> (and (F__2 tmp_11 tmp_12) (= (In_0 tmp_12) #b1)) (F_ERR tmp_11 (bvadd tmp_12 #x00000001)))))
(assert (forall ((tmp_13 (_ BitVec 16)) (tmp_14 (_ BitVec 32)))
        (=> (and (F__3 tmp_13 tmp_14) (distinct (In_0 tmp_14) #b1)) (F__4 (bvadd tmp_13 #x0001) (bvadd tmp_14 #x00000001)))))
(assert (forall ((tmp_15 (_ BitVec 16)) (tmp_16 (_ BitVec 32)))
        (=> (and (F__3 tmp_15 tmp_16) (= (In_0 tmp_16) #b1)) (F_ERR tmp_15 (bvadd tmp_16 #x00000001)))))
(assert (forall ((tmp_17 (_ BitVec 16)) (tmp_18 (_ BitVec 32)))
        (=> (and (F__4 tmp_17 tmp_18) (distinct (In_0 tmp_18) #b1)) (F__5 (bvadd tmp_17 #x0001) (bvadd tmp_18 #x00000001)))))
(assert (forall ((tmp_19 (_ BitVec 16)) (tmp_20 (_ BitVec 32)))
        (=> (and (F__4 tmp_19 tmp_20) (= (In_0 tmp_20) #b1)) (F_ERR tmp_19 (bvadd tmp_20 #x00000001)))))
(assert (forall ((tmp_21 (_ BitVec 16)) (tmp_22 (_ BitVec 32)))
        (=> (and (F__5 tmp_21 tmp_22) (distinct (In_0 tmp_22) #b1)) (F__6 (bvadd tmp_21 #x0001) (bvadd tmp_22 #x00000001)))))
(assert (forall ((tmp_23 (_ BitVec 16)) (tmp_24 (_ BitVec 32)))
        (=> (and (F__5 tmp_23 tmp_24) (= (In_0 tmp_24) #b1)) (F_ERR tmp_23 (bvadd tmp_24 #x00000001)))))
(assert (forall ((tmp_25 (_ BitVec 16)) (tmp_26 (_ BitVec 32)))
        (=> (and (F__6 tmp_25 tmp_26) (distinct (In_0 tmp_26) #b1)) (F__7 (bvadd tmp_25 #x0001) (bvadd tmp_26 #x00000001)))))
(assert (forall ((tmp_27 (_ BitVec 16)) (tmp_28 (_ BitVec 32)))
        (=> (and (F__6 tmp_27 tmp_28) (= (In_0 tmp_28) #b1)) (F_ERR tmp_27 (bvadd tmp_28 #x00000001)))))
(assert (forall ((tmp_29 (_ BitVec 16)) (tmp_30 (_ BitVec 32)))
        (=> (and (F__7 tmp_29 tmp_30) (distinct (In_0 tmp_30) #b1)) (F__8 (bvadd tmp_29 #x0001) (bvadd tmp_30 #x00000001)))))
(assert (forall ((tmp_31 (_ BitVec 16)) (tmp_32 (_ BitVec 32)))
        (=> (and (F__7 tmp_31 tmp_32) (= (In_0 tmp_32) #b1)) (F_ERR tmp_31 (bvadd tmp_32 #x00000001)))))
(assert (forall ((tmp_33 (_ BitVec 16)) (tmp_34 (_ BitVec 32)))
        (=> (and (F__8 tmp_33 tmp_34) (distinct (In_0 tmp_34) #b1)) (F__9 (bvadd tmp_33 #x0001) (bvadd tmp_34 #x00000001)))))
(assert (forall ((tmp_35 (_ BitVec 16)) (tmp_36 (_ BitVec 32)))
        (=> (and (F__8 tmp_35 tmp_36) (= (In_0 tmp_36) #b1)) (F_ERR tmp_35 (bvadd tmp_36 #x00000001)))))
(assert (forall ((tmp_37 (_ BitVec 16)) (tmp_38 (_ BitVec 32)))
        (=> (and (F__9 tmp_37 tmp_38) (distinct (In_0 tmp_38) #b1)) (F__10 (bvadd tmp_37 #x0001) (bvadd tmp_38 #x00000001)))))
(assert (forall ((tmp_39 (_ BitVec 16)) (tmp_40 (_ BitVec 32)))
        (=> (and (F__9 tmp_39 tmp_40) (= (In_0 tmp_40) #b1)) (F_ERR tmp_39 (bvadd tmp_40 #x00000001)))))
(assert (forall ((tmp_41 (_ BitVec 16)) (tmp_42 (_ BitVec 32)))
        (=> (F__0 tmp_41 tmp_42) (and (and (and (and (and (and (and (and (and (and (not (F__1 tmp_41 tmp_42)) (not (F__2 tmp_41 tmp_42))) (not (F__3 tmp_41 tmp_42))) (not (F__4 tmp_41 tmp_42))) (not (F__5 tmp_41 tmp_42))) (not (F__6 tmp_41 tmp_42))) (not (F__7 tmp_41 tmp_42))) (not (F__8 tmp_41 tmp_42))) (not (F__9 tmp_41 tmp_42))) (not (F__10 tmp_41 tmp_42))) (not (F_ERR tmp_41 tmp_42))))))
(assert (forall ((tmp_43 (_ BitVec 16)) (tmp_44 (_ BitVec 32)))
        (=> (F__1 tmp_43 tmp_44) (and (and (and (and (and (and (and (and (and (and (not (F__0 tmp_43 tmp_44)) (not (F__2 tmp_43 tmp_44))) (not (F__3 tmp_43 tmp_44))) (not (F__4 tmp_43 tmp_44))) (not (F__5 tmp_43 tmp_44))) (not (F__6 tmp_43 tmp_44))) (not (F__7 tmp_43 tmp_44))) (not (F__8 tmp_43 tmp_44))) (not (F__9 tmp_43 tmp_44))) (not (F__10 tmp_43 tmp_44))) (not (F_ERR tmp_43 tmp_44))))))
(assert (forall ((tmp_45 (_ BitVec 16)) (tmp_46 (_ BitVec 32)))
        (=> (F__2 tmp_45 tmp_46) (and (and (and (and (and (and (and (and (and (and (not (F__0 tmp_45 tmp_46)) (not (F__1 tmp_45 tmp_46))) (not (F__3 tmp_45 tmp_46))) (not (F__4 tmp_45 tmp_46))) (not (F__5 tmp_45 tmp_46))) (not (F__6 tmp_45 tmp_46))) (not (F__7 tmp_45 tmp_46))) (not (F__8 tmp_45 tmp_46))) (not (F__9 tmp_45 tmp_46))) (not (F__10 tmp_45 tmp_46))) (not (F_ERR tmp_45 tmp_46))))))
(assert (forall ((tmp_47 (_ BitVec 16)) (tmp_48 (_ BitVec 32)))
        (=> (F__3 tmp_47 tmp_48) (and (and (and (and (and (and (and (and (and (and (not (F__0 tmp_47 tmp_48)) (not (F__1 tmp_47 tmp_48))) (not (F__2 tmp_47 tmp_48))) (not (F__4 tmp_47 tmp_48))) (not (F__5 tmp_47 tmp_48))) (not (F__6 tmp_47 tmp_48))) (not (F__7 tmp_47 tmp_48))) (not (F__8 tmp_47 tmp_48))) (not (F__9 tmp_47 tmp_48))) (not (F__10 tmp_47 tmp_48))) (not (F_ERR tmp_47 tmp_48))))))
(assert (forall ((tmp_49 (_ BitVec 16)) (tmp_50 (_ BitVec 32)))
        (=> (F__4 tmp_49 tmp_50) (and (and (and (and (and (and (and (and (and (and (not (F__0 tmp_49 tmp_50)) (not (F__1 tmp_49 tmp_50))) (not (F__2 tmp_49 tmp_50))) (not (F__3 tmp_49 tmp_50))) (not (F__5 tmp_49 tmp_50))) (not (F__6 tmp_49 tmp_50))) (not (F__7 tmp_49 tmp_50))) (not (F__8 tmp_49 tmp_50))) (not (F__9 tmp_49 tmp_50))) (not (F__10 tmp_49 tmp_50))) (not (F_ERR tmp_49 tmp_50))))))
(assert (forall ((tmp_51 (_ BitVec 16)) (tmp_52 (_ BitVec 32)))
        (=> (F__5 tmp_51 tmp_52) (and (and (and (and (and (and (and (and (and (and (not (F__0 tmp_51 tmp_52)) (not (F__1 tmp_51 tmp_52))) (not (F__2 tmp_51 tmp_52))) (not (F__3 tmp_51 tmp_52))) (not (F__4 tmp_51 tmp_52))) (not (F__6 tmp_51 tmp_52))) (not (F__7 tmp_51 tmp_52))) (not (F__8 tmp_51 tmp_52))) (not (F__9 tmp_51 tmp_52))) (not (F__10 tmp_51 tmp_52))) (not (F_ERR tmp_51 tmp_52))))))
(assert (forall ((tmp_53 (_ BitVec 16)) (tmp_54 (_ BitVec 32)))
        (=> (F__6 tmp_53 tmp_54) (and (and (and (and (and (and (and (and (and (and (not (F__0 tmp_53 tmp_54)) (not (F__1 tmp_53 tmp_54))) (not (F__2 tmp_53 tmp_54))) (not (F__3 tmp_53 tmp_54))) (not (F__4 tmp_53 tmp_54))) (not (F__5 tmp_53 tmp_54))) (not (F__7 tmp_53 tmp_54))) (not (F__8 tmp_53 tmp_54))) (not (F__9 tmp_53 tmp_54))) (not (F__10 tmp_53 tmp_54))) (not (F_ERR tmp_53 tmp_54))))))
(assert (forall ((tmp_55 (_ BitVec 16)) (tmp_56 (_ BitVec 32)))
        (=> (F__7 tmp_55 tmp_56) (and (and (and (and (and (and (and (and (and (and (not (F__0 tmp_55 tmp_56)) (not (F__1 tmp_55 tmp_56))) (not (F__2 tmp_55 tmp_56))) (not (F__3 tmp_55 tmp_56))) (not (F__4 tmp_55 tmp_56))) (not (F__5 tmp_55 tmp_56))) (not (F__6 tmp_55 tmp_56))) (not (F__8 tmp_55 tmp_56))) (not (F__9 tmp_55 tmp_56))) (not (F__10 tmp_55 tmp_56))) (not (F_ERR tmp_55 tmp_56))))))
(assert (forall ((tmp_57 (_ BitVec 16)) (tmp_58 (_ BitVec 32)))
        (=> (F__8 tmp_57 tmp_58) (and (and (and (and (and (and (and (and (and (and (not (F__0 tmp_57 tmp_58)) (not (F__1 tmp_57 tmp_58))) (not (F__2 tmp_57 tmp_58))) (not (F__3 tmp_57 tmp_58))) (not (F__4 tmp_57 tmp_58))) (not (F__5 tmp_57 tmp_58))) (not (F__6 tmp_57 tmp_58))) (not (F__7 tmp_57 tmp_58))) (not (F__9 tmp_57 tmp_58))) (not (F__10 tmp_57 tmp_58))) (not (F_ERR tmp_57 tmp_58))))))
(assert (forall ((tmp_59 (_ BitVec 16)) (tmp_60 (_ BitVec 32)))
        (=> (F__9 tmp_59 tmp_60) (and (and (and (and (and (and (and (and (and (and (not (F__0 tmp_59 tmp_60)) (not (F__1 tmp_59 tmp_60))) (not (F__2 tmp_59 tmp_60))) (not (F__3 tmp_59 tmp_60))) (not (F__4 tmp_59 tmp_60))) (not (F__5 tmp_59 tmp_60))) (not (F__6 tmp_59 tmp_60))) (not (F__7 tmp_59 tmp_60))) (not (F__8 tmp_59 tmp_60))) (not (F__10 tmp_59 tmp_60))) (not (F_ERR tmp_59 tmp_60))))))
(assert (forall ((tmp_61 (_ BitVec 16)) (tmp_62 (_ BitVec 32)))
        (=> (F__10 tmp_61 tmp_62) (and (and (and (and (and (and (and (and (and (and (not (F__0 tmp_61 tmp_62)) (not (F__1 tmp_61 tmp_62))) (not (F__2 tmp_61 tmp_62))) (not (F__3 tmp_61 tmp_62))) (not (F__4 tmp_61 tmp_62))) (not (F__5 tmp_61 tmp_62))) (not (F__6 tmp_61 tmp_62))) (not (F__7 tmp_61 tmp_62))) (not (F__8 tmp_61 tmp_62))) (not (F__9 tmp_61 tmp_62))) (not (F_ERR tmp_61 tmp_62))))))
(assert (forall ((tmp_63 (_ BitVec 16)) (tmp_64 (_ BitVec 32)))
        (=> (F_ERR tmp_63 tmp_64) (and (and (and (and (and (and (and (and (and (and (not (F__0 tmp_63 tmp_64)) (not (F__1 tmp_63 tmp_64))) (not (F__2 tmp_63 tmp_64))) (not (F__3 tmp_63 tmp_64))) (not (F__4 tmp_63 tmp_64))) (not (F__5 tmp_63 tmp_64))) (not (F__6 tmp_63 tmp_64))) (not (F__7 tmp_63 tmp_64))) (not (F__8 tmp_63 tmp_64))) (not (F__9 tmp_63 tmp_64))) (not (F__10 tmp_63 tmp_64))))))
(check-sat)
